NAME
ROWS
 N  OBJ
 G  c1
 G  c2
 G  c3
 G  c4
 G  c5
 G  c6
 G  c7
 G  c8
 G  c9
 G  c10
 G  c11
 G  c12
 G  c13
 G  c14
 G  c15
 G  c16
 G  c17
 G  c18
 G  c19
 G  c20
 G  c21
 G  c22
 G  c23
 G  c24
 G  c25
 G  c26
 G  c27
 G  c28
 G  c29
 G  c30
 G  c31
 G  c32
 G  c33
 G  c34
 G  c35
 G  c36
 G  c37
 G  c38
 G  c39
 G  c40
 G  c41
 G  c42
 G  c43
 G  c44
 G  c45
 G  c46
 G  c47
 G  c48
 G  c49
 G  c50
 G  c51
 G  c52
 G  c53
 G  c54
 G  c55
 G  c56
 G  c57
 G  c58
 G  c59
 G  c60
 G  c61
 G  c62
 G  c63
 G  c64
 G  c65
 G  c66
 G  c67
 G  c68
 G  c69
 G  c70
 G  c71
 G  c72
 G  c73
 G  c74
 G  c75
 G  c76
 G  c77
 G  c78
 G  c79
 G  c80
 G  c81
 G  c82
 G  c83
 G  c84
 G  c85
 G  c86
 G  c87
 G  c88
 G  c89
 G  c90
 G  c91
 G  c92
 G  c93
 G  c94
 G  c95
 G  c96
 G  c97
 G  c98
 G  c99
 G  c100
COLUMNS
    MARKER    'MARKER'                 'INTORG'
    x[1]      c1        1
    x[1]      c8        1
    x[1]      c11       1
    x[1]      c13       1
    x[1]      c33       1
    x[1]      c40       1
    x[1]      c49       1
    x[1]      c63       1
    x[1]      c76       1
    x[1]      c79       1
    x[1]      OBJ       1
    x[2]      c2        1
    x[2]      c5        1
    x[2]      c6        1
    x[2]      c18       1
    x[2]      c31       1
    x[2]      c36       1
    x[2]      c45       1
    x[2]      c46       1
    x[2]      c51       1
    x[2]      c62       1
    x[2]      c74       1
    x[2]      c80       1
    x[2]      c81       1
    x[2]      c98       1
    x[2]      OBJ       1
    x[3]      c3        1
    x[3]      c8        1
    x[3]      c9        1
    x[3]      c15       1
    x[3]      c21       1
    x[3]      c32       1
    x[3]      c55       1
    x[3]      c59       1
    x[3]      c70       1
    x[3]      c76       1
    x[3]      c78       1
    x[3]      c80       1
    x[3]      c96       1
    x[3]      c97       1
    x[3]      OBJ       1
    x[4]      c4        1
    x[4]      c27       1
    x[4]      c49       1
    x[4]      c57       1
    x[4]      c62       1
    x[4]      c64       1
    x[4]      c89       1
    x[4]      c93       1
    x[4]      c100      1
    x[4]      OBJ       1
    x[5]      c2        1
    x[5]      c5        1
    x[5]      c11       1
    x[5]      c41       1
    x[5]      c48       1
    x[5]      c65       1
    x[5]      c79       1
    x[5]      OBJ       1
    x[6]      c2        1
    x[6]      c6        1
    x[6]      c7        1
    x[6]      c14       1
    x[6]      c18       1
    x[6]      c38       1
    x[6]      c49       1
    x[6]      c58       1
    x[6]      c69       1
    x[6]      c70       1
    x[6]      c90       1
    x[6]      c92       1
    x[6]      OBJ       1
    x[7]      c6        1
    x[7]      c7        1
    x[7]      c16       1
    x[7]      c23       1
    x[7]      c30       1
    x[7]      c35       1
    x[7]      c38       1
    x[7]      c40       1
    x[7]      c43       1
    x[7]      c50       1
    x[7]      c59       1
    x[7]      c63       1
    x[7]      c65       1
    x[7]      c67       1
    x[7]      c82       1
    x[7]      OBJ       1
    x[8]      c1        1
    x[8]      c3        1
    x[8]      c8        1
    x[8]      c14       1
    x[8]      c15       1
    x[8]      c26       1
    x[8]      c54       1
    x[8]      c57       1
    x[8]      c61       1
    x[8]      c64       1
    x[8]      c65       1
    x[8]      c71       1
    x[8]      c82       1
    x[8]      c86       1
    x[8]      c95       1
    x[8]      OBJ       1
    x[9]      c3        1
    x[9]      c9        1
    x[9]      c38       1
    x[9]      c52       1
    x[9]      c55       1
    x[9]      c66       1
    x[9]      c68       1
    x[9]      c74       1
    x[9]      c78       1
    x[9]      c99       1
    x[9]      OBJ       1
    x[10]     c10       1
    x[10]     c13       1
    x[10]     c19       1
    x[10]     c23       1
    x[10]     c39       1
    x[10]     c43       1
    x[10]     c46       1
    x[10]     c54       1
    x[10]     c58       1
    x[10]     c68       1
    x[10]     c70       1
    x[10]     OBJ       1
    x[11]     c1        1
    x[11]     c5        1
    x[11]     c11       1
    x[11]     c28       1
    x[11]     c66       1
    x[11]     c75       1
    x[11]     c76       1
    x[11]     c87       1
    x[11]     c91       1
    x[11]     c95       1
    x[11]     OBJ       1
    x[12]     c12       1
    x[12]     c23       1
    x[12]     c24       1
    x[12]     c27       1
    x[12]     c29       1
    x[12]     c30       1
    x[12]     c47       1
    x[12]     c50       1
    x[12]     c51       1
    x[12]     c61       1
    x[12]     c64       1
    x[12]     c77       1
    x[12]     OBJ       1
    x[13]     c1        1
    x[13]     c10       1
    x[13]     c13       1
    x[13]     c23       1
    x[13]     c24       1
    x[13]     c59       1
    x[13]     c68       1
    x[13]     c93       1
    x[13]     OBJ       1
    x[14]     c6        1
    x[14]     c8        1
    x[14]     c14       1
    x[14]     c34       1
    x[14]     c37       1
    x[14]     c52       1
    x[14]     c94       1
    x[14]     c95       1
    x[14]     OBJ       1
    x[15]     c3        1
    x[15]     c8        1
    x[15]     c15       1
    x[15]     c17       1
    x[15]     c32       1
    x[15]     c36       1
    x[15]     c42       1
    x[15]     c44       1
    x[15]     c50       1
    x[15]     c54       1
    x[15]     c73       1
    x[15]     c75       1
    x[15]     c77       1
    x[15]     c85       1
    x[15]     c98       1
    x[15]     OBJ       1
    x[16]     c7        1
    x[16]     c16       1
    x[16]     c18       1
    x[16]     c20       1
    x[16]     c50       1
    x[16]     c55       1
    x[16]     c58       1
    x[16]     c68       1
    x[16]     c74       1
    x[16]     c87       1
    x[16]     OBJ       1
    x[17]     c15       1
    x[17]     c17       1
    x[17]     c19       1
    x[17]     c26       1
    x[17]     c29       1
    x[17]     c54       1
    x[17]     c69       1
    x[17]     OBJ       1
    x[18]     c2        1
    x[18]     c6        1
    x[18]     c16       1
    x[18]     c18       1
    x[18]     c37       1
    x[18]     c44       1
    x[18]     c53       1
    x[18]     c66       1
    x[18]     c75       1
    x[18]     c78       1
    x[18]     c82       1
    x[18]     c83       1
    x[18]     c88       1
    x[18]     c94       1
    x[18]     OBJ       1
    x[19]     c10       1
    x[19]     c17       1
    x[19]     c19       1
    x[19]     c21       1
    x[19]     c27       1
    x[19]     c31       1
    x[19]     c32       1
    x[19]     c33       1
    x[19]     c35       1
    x[19]     c45       1
    x[19]     c55       1
    x[19]     c66       1
    x[19]     c73       1
    x[19]     c78       1
    x[19]     c81       1
    x[19]     c88       1
    x[19]     c92       1
    x[19]     OBJ       1
    x[20]     c16       1
    x[20]     c20       1
    x[20]     c57       1
    x[20]     c58       1
    x[20]     c87       1
    x[20]     c90       1
    x[20]     OBJ       1
    x[21]     c3        1
    x[21]     c19       1
    x[21]     c21       1
    x[21]     c23       1
    x[21]     c77       1
    x[21]     c80       1
    x[21]     c82       1
    x[21]     OBJ       1
    x[22]     c22       1
    x[22]     c23       1
    x[22]     c25       1
    x[22]     c33       1
    x[22]     c85       1
    x[22]     c87       1
    x[22]     c90       1
    x[22]     c96       1
    x[22]     OBJ       1
    x[23]     c7        1
    x[23]     c10       1
    x[23]     c12       1
    x[23]     c13       1
    x[23]     c21       1
    x[23]     c22       1
    x[23]     c23       1
    x[23]     c28       1
    x[23]     c37       1
    x[23]     c39       1
    x[23]     c45       1
    x[23]     c46       1
    x[23]     c52       1
    x[23]     c59       1
    x[23]     c88       1
    x[23]     OBJ       1
    x[24]     c12       1
    x[24]     c13       1
    x[24]     c24       1
    x[24]     c25       1
    x[24]     c28       1
    x[24]     c30       1
    x[24]     c31       1
    x[24]     c42       1
    x[24]     c61       1
    x[24]     c73       1
    x[24]     c97       1
    x[24]     OBJ       1
    x[25]     c22       1
    x[25]     c24       1
    x[25]     c25       1
    x[25]     c26       1
    x[25]     c30       1
    x[25]     c33       1
    x[25]     c35       1
    x[25]     c39       1
    x[25]     c41       1
    x[25]     c52       1
    x[25]     c67       1
    x[25]     c68       1
    x[25]     c93       1
    x[25]     c94       1
    x[25]     OBJ       1
    x[26]     c8        1
    x[26]     c17       1
    x[26]     c25       1
    x[26]     c26       1
    x[26]     c31       1
    x[26]     c42       1
    x[26]     c77       1
    x[26]     c95       1
    x[26]     OBJ       1
    x[27]     c4        1
    x[27]     c12       1
    x[27]     c19       1
    x[27]     c27       1
    x[27]     c40       1
    x[27]     c42       1
    x[27]     c48       1
    x[27]     c56       1
    x[27]     c63       1
    x[27]     c71       1
    x[27]     c76       1
    x[27]     c96       1
    x[27]     OBJ       1
    x[28]     c11       1
    x[28]     c23       1
    x[28]     c24       1
    x[28]     c28       1
    x[28]     c49       1
    x[28]     c58       1
    x[28]     c70       1
    x[28]     c76       1
    x[28]     c86       1
    x[28]     c90       1
    x[28]     c92       1
    x[28]     c100      1
    x[28]     OBJ       1
    x[29]     c12       1
    x[29]     c17       1
    x[29]     c29       1
    x[29]     c30       1
    x[29]     c43       1
    x[29]     c52       1
    x[29]     c72       1
    x[29]     c83       1
    x[29]     OBJ       1
    x[30]     c7        1
    x[30]     c12       1
    x[30]     c24       1
    x[30]     c25       1
    x[30]     c29       1
    x[30]     c30       1
    x[30]     c37       1
    x[30]     c39       1
    x[30]     c52       1
    x[30]     c65       1
    x[30]     c79       1
    x[30]     c83       1
    x[30]     c84       1
    x[30]     c90       1
    x[30]     OBJ       1
    x[31]     c2        1
    x[31]     c19       1
    x[31]     c24       1
    x[31]     c26       1
    x[31]     c31       1
    x[31]     c44       1
    x[31]     c56       1
    x[31]     c59       1
    x[31]     c68       1
    x[31]     c73       1
    x[31]     c91       1
    x[31]     c93       1
    x[31]     c96       1
    x[31]     OBJ       1
    x[32]     c3        1
    x[32]     c15       1
    x[32]     c19       1
    x[32]     c32       1
    x[32]     c45       1
    x[32]     c48       1
    x[32]     c51       1
    x[32]     c63       1
    x[32]     c65       1
    x[32]     c69       1
    x[32]     c75       1
    x[32]     OBJ       1
    x[33]     c1        1
    x[33]     c19       1
    x[33]     c22       1
    x[33]     c25       1
    x[33]     c33       1
    x[33]     c38       1
    x[33]     c61       1
    x[33]     c72       1
    x[33]     c74       1
    x[33]     c78       1
    x[33]     c81       1
    x[33]     OBJ       1
    x[34]     c14       1
    x[34]     c34       1
    x[34]     c50       1
    x[34]     c58       1
    x[34]     c81       1
    x[34]     c95       1
    x[34]     OBJ       1
    x[35]     c7        1
    x[35]     c19       1
    x[35]     c25       1
    x[35]     c35       1
    x[35]     c48       1
    x[35]     c65       1
    x[35]     c73       1
    x[35]     c75       1
    x[35]     c84       1
    x[35]     OBJ       1
    x[36]     c2        1
    x[36]     c15       1
    x[36]     c36       1
    x[36]     c52       1
    x[36]     c58       1
    x[36]     c60       1
    x[36]     c61       1
    x[36]     c64       1
    x[36]     c69       1
    x[36]     c75       1
    x[36]     c77       1
    x[36]     c79       1
    x[36]     OBJ       1
    x[37]     c14       1
    x[37]     c18       1
    x[37]     c23       1
    x[37]     c30       1
    x[37]     c37       1
    x[37]     c44       1
    x[37]     c45       1
    x[37]     c46       1
    x[37]     c66       1
    x[37]     c67       1
    x[37]     c69       1
    x[37]     c75       1
    x[37]     c98       1
    x[37]     OBJ       1
    x[38]     c6        1
    x[38]     c7        1
    x[38]     c9        1
    x[38]     c33       1
    x[38]     c38       1
    x[38]     c39       1
    x[38]     c45       1
    x[38]     c75       1
    x[38]     c77       1
    x[38]     c96       1
    x[38]     OBJ       1
    x[39]     c10       1
    x[39]     c23       1
    x[39]     c25       1
    x[39]     c30       1
    x[39]     c38       1
    x[39]     c39       1
    x[39]     c51       1
    x[39]     c63       1
    x[39]     c71       1
    x[39]     c86       1
    x[39]     c89       1
    x[39]     c91       1
    x[39]     c95       1
    x[39]     c98       1
    x[39]     OBJ       1
    x[40]     c1        1
    x[40]     c7        1
    x[40]     c27       1
    x[40]     c40       1
    x[40]     c56       1
    x[40]     c74       1
    x[40]     c83       1
    x[40]     OBJ       1
    x[41]     c5        1
    x[41]     c25       1
    x[41]     c41       1
    x[41]     c55       1
    x[41]     c71       1
    x[41]     c78       1
    x[41]     c91       1
    x[41]     c93       1
    x[41]     OBJ       1
    x[42]     c15       1
    x[42]     c24       1
    x[42]     c26       1
    x[42]     c27       1
    x[42]     c42       1
    x[42]     c51       1
    x[42]     c72       1
    x[42]     OBJ       1
    x[43]     c7        1
    x[43]     c10       1
    x[43]     c29       1
    x[43]     c43       1
    x[43]     c76       1
    x[43]     c80       1
    x[43]     c84       1
    x[43]     c85       1
    x[43]     c98       1
    x[43]     OBJ       1
    x[44]     c15       1
    x[44]     c18       1
    x[44]     c31       1
    x[44]     c37       1
    x[44]     c44       1
    x[44]     c49       1
    x[44]     c58       1
    x[44]     c77       1
    x[44]     c80       1
    x[44]     c87       1
    x[44]     c89       1
    x[44]     OBJ       1
    x[45]     c2        1
    x[45]     c19       1
    x[45]     c23       1
    x[45]     c32       1
    x[45]     c37       1
    x[45]     c38       1
    x[45]     c45       1
    x[45]     c48       1
    x[45]     c53       1
    x[45]     c62       1
    x[45]     c71       1
    x[45]     c100      1
    x[45]     OBJ       1
    x[46]     c2        1
    x[46]     c10       1
    x[46]     c23       1
    x[46]     c37       1
    x[46]     c46       1
    x[46]     c52       1
    x[46]     c58       1
    x[46]     c64       1
    x[46]     c70       1
    x[46]     c71       1
    x[46]     c72       1
    x[46]     c79       1
    x[46]     c84       1
    x[46]     c93       1
    x[46]     OBJ       1
    x[47]     c12       1
    x[47]     c47       1
    x[47]     c61       1
    x[47]     c72       1
    x[47]     c78       1
    x[47]     c89       1
    x[47]     c94       1
    x[47]     OBJ       1
    x[48]     c5        1
    x[48]     c27       1
    x[48]     c32       1
    x[48]     c35       1
    x[48]     c45       1
    x[48]     c48       1
    x[48]     c50       1
    x[48]     c51       1
    x[48]     c55       1
    x[48]     c61       1
    x[48]     c76       1
    x[48]     c79       1
    x[48]     c80       1
    x[48]     c88       1
    x[48]     OBJ       1
    x[49]     c1        1
    x[49]     c4        1
    x[49]     c6        1
    x[49]     c28       1
    x[49]     c44       1
    x[49]     c49       1
    x[49]     c50       1
    x[49]     c70       1
    x[49]     c80       1
    x[49]     c82       1
    x[49]     c92       1
    x[49]     OBJ       1
    x[50]     c7        1
    x[50]     c12       1
    x[50]     c15       1
    x[50]     c16       1
    x[50]     c34       1
    x[50]     c48       1
    x[50]     c49       1
    x[50]     c50       1
    x[50]     c53       1
    x[50]     c58       1
    x[50]     c59       1
    x[50]     c78       1
    x[50]     c79       1
    x[50]     c90       1
    x[50]     c93       1
    x[50]     OBJ       1
    x[51]     c2        1
    x[51]     c12       1
    x[51]     c32       1
    x[51]     c39       1
    x[51]     c42       1
    x[51]     c48       1
    x[51]     c51       1
    x[51]     c63       1
    x[51]     c82       1
    x[51]     c84       1
    x[51]     c85       1
    x[51]     c86       1
    x[51]     OBJ       1
    x[52]     c9        1
    x[52]     c14       1
    x[52]     c23       1
    x[52]     c25       1
    x[52]     c29       1
    x[52]     c30       1
    x[52]     c36       1
    x[52]     c46       1
    x[52]     c52       1
    x[52]     c61       1
    x[52]     c63       1
    x[52]     c64       1
    x[52]     c90       1
    x[52]     c92       1
    x[52]     c94       1
    x[52]     c96       1
    x[52]     c99       1
    x[52]     OBJ       1
    x[53]     c18       1
    x[53]     c45       1
    x[53]     c50       1
    x[53]     c53       1
    x[53]     c58       1
    x[53]     c63       1
    x[53]     c68       1
    x[53]     c73       1
    x[53]     c78       1
    x[53]     c79       1
    x[53]     c87       1
    x[53]     c93       1
    x[53]     OBJ       1
    x[54]     c8        1
    x[54]     c10       1
    x[54]     c15       1
    x[54]     c17       1
    x[54]     c54       1
    x[54]     c69       1
    x[54]     OBJ       1
    x[55]     c3        1
    x[55]     c9        1
    x[55]     c16       1
    x[55]     c19       1
    x[55]     c41       1
    x[55]     c48       1
    x[55]     c55       1
    x[55]     c65       1
    x[55]     c92       1
    x[55]     c95       1
    x[55]     c98       1
    x[55]     OBJ       1
    x[56]     c27       1
    x[56]     c31       1
    x[56]     c40       1
    x[56]     c56       1
    x[56]     c60       1
    x[56]     c61       1
    x[56]     c86       1
    x[56]     c94       1
    x[56]     OBJ       1
    x[57]     c4        1
    x[57]     c8        1
    x[57]     c20       1
    x[57]     c57       1
    x[57]     c76       1
    x[57]     c79       1
    x[57]     c83       1
    x[57]     OBJ       1
    x[58]     c6        1
    x[58]     c10       1
    x[58]     c16       1
    x[58]     c20       1
    x[58]     c28       1
    x[58]     c34       1
    x[58]     c36       1
    x[58]     c44       1
    x[58]     c46       1
    x[58]     c50       1
    x[58]     c53       1
    x[58]     c58       1
    x[58]     c63       1
    x[58]     c65       1
    x[58]     c79       1
    x[58]     c82       1
    x[58]     c94       1
    x[58]     OBJ       1
    x[59]     c3        1
    x[59]     c7        1
    x[59]     c13       1
    x[59]     c23       1
    x[59]     c31       1
    x[59]     c50       1
    x[59]     c59       1
    x[59]     c79       1
    x[59]     c83       1
    x[59]     c96       1
    x[59]     OBJ       1
    x[60]     c36       1
    x[60]     c56       1
    x[60]     c60       1
    x[60]     c91       1
    x[60]     c93       1
    x[60]     c94       1
    x[60]     OBJ       1
    x[61]     c8        1
    x[61]     c12       1
    x[61]     c24       1
    x[61]     c33       1
    x[61]     c36       1
    x[61]     c47       1
    x[61]     c48       1
    x[61]     c52       1
    x[61]     c56       1
    x[61]     c61       1
    x[61]     c66       1
    x[61]     c75       1
    x[61]     c78       1
    x[61]     c87       1
    x[61]     c93       1
    x[61]     c94       1
    x[61]     OBJ       1
    x[62]     c2        1
    x[62]     c4        1
    x[62]     c45       1
    x[62]     c62       1
    x[62]     c63       1
    x[62]     c64       1
    x[62]     c65       1
    x[62]     c82       1
    x[62]     OBJ       1
    x[63]     c1        1
    x[63]     c7        1
    x[63]     c27       1
    x[63]     c32       1
    x[63]     c39       1
    x[63]     c51       1
    x[63]     c52       1
    x[63]     c53       1
    x[63]     c58       1
    x[63]     c62       1
    x[63]     c63       1
    x[63]     c68       1
    x[63]     c74       1
    x[63]     c75       1
    x[63]     c77       1
    x[63]     c81       1
    x[63]     c94       1
    x[63]     c96       1
    x[63]     OBJ       1
    x[64]     c4        1
    x[64]     c8        1
    x[64]     c12       1
    x[64]     c36       1
    x[64]     c46       1
    x[64]     c52       1
    x[64]     c62       1
    x[64]     c64       1
    x[64]     OBJ       1
    x[65]     c5        1
    x[65]     c7        1
    x[65]     c8        1
    x[65]     c30       1
    x[65]     c32       1
    x[65]     c35       1
    x[65]     c55       1
    x[65]     c58       1
    x[65]     c62       1
    x[65]     c65       1
    x[65]     c75       1
    x[65]     c76       1
    x[65]     c83       1
    x[65]     c95       1
    x[65]     c97       1
    x[65]     OBJ       1
    x[66]     c9        1
    x[66]     c11       1
    x[66]     c18       1
    x[66]     c19       1
    x[66]     c37       1
    x[66]     c61       1
    x[66]     c66       1
    x[66]     OBJ       1
    x[67]     c7        1
    x[67]     c25       1
    x[67]     c37       1
    x[67]     c67       1
    x[67]     c74       1
    x[67]     c79       1
    x[67]     c92       1
    x[67]     OBJ       1
    x[68]     c9        1
    x[68]     c10       1
    x[68]     c13       1
    x[68]     c16       1
    x[68]     c25       1
    x[68]     c31       1
    x[68]     c53       1
    x[68]     c63       1
    x[68]     c68       1
    x[68]     c73       1
    x[68]     c78       1
    x[68]     c81       1
    x[68]     c88       1
    x[68]     c96       1
    x[68]     c98       1
    x[68]     OBJ       1
    x[69]     c6        1
    x[69]     c17       1
    x[69]     c32       1
    x[69]     c36       1
    x[69]     c37       1
    x[69]     c54       1
    x[69]     c69       1
    x[69]     c83       1
    x[69]     c84       1
    x[69]     c87       1
    x[69]     OBJ       1
    x[70]     c3        1
    x[70]     c6        1
    x[70]     c10       1
    x[70]     c28       1
    x[70]     c46       1
    x[70]     c49       1
    x[70]     c70       1
    x[70]     c81       1
    x[70]     c85       1
    x[70]     c88       1
    x[70]     c89       1
    x[70]     OBJ       1
    x[71]     c8        1
    x[71]     c27       1
    x[71]     c39       1
    x[71]     c41       1
    x[71]     c45       1
    x[71]     c46       1
    x[71]     c71       1
    x[71]     c95       1
    x[71]     OBJ       1
    x[72]     c29       1
    x[72]     c33       1
    x[72]     c42       1
    x[72]     c46       1
    x[72]     c47       1
    x[72]     c72       1
    x[72]     c87       1
    x[72]     c99       1
    x[72]     OBJ       1
    x[73]     c15       1
    x[73]     c19       1
    x[73]     c24       1
    x[73]     c31       1
    x[73]     c35       1
    x[73]     c53       1
    x[73]     c68       1
    x[73]     c73       1
    x[73]     c93       1
    x[73]     c94       1
    x[73]     OBJ       1
    x[74]     c2        1
    x[74]     c9        1
    x[74]     c16       1
    x[74]     c33       1
    x[74]     c40       1
    x[74]     c63       1
    x[74]     c67       1
    x[74]     c74       1
    x[74]     c75       1
    x[74]     c79       1
    x[74]     c80       1
    x[74]     c89       1
    x[74]     OBJ       1
    x[75]     c11       1
    x[75]     c15       1
    x[75]     c18       1
    x[75]     c32       1
    x[75]     c35       1
    x[75]     c36       1
    x[75]     c37       1
    x[75]     c38       1
    x[75]     c61       1
    x[75]     c63       1
    x[75]     c65       1
    x[75]     c74       1
    x[75]     c75       1
    x[75]     c78       1
    x[75]     c85       1
    x[75]     c89       1
    x[75]     OBJ       1
    x[76]     c1        1
    x[76]     c3        1
    x[76]     c11       1
    x[76]     c27       1
    x[76]     c28       1
    x[76]     c43       1
    x[76]     c48       1
    x[76]     c57       1
    x[76]     c65       1
    x[76]     c76       1
    x[76]     c98       1
    x[76]     OBJ       1
    x[77]     c12       1
    x[77]     c15       1
    x[77]     c21       1
    x[77]     c26       1
    x[77]     c36       1
    x[77]     c38       1
    x[77]     c44       1
    x[77]     c63       1
    x[77]     c77       1
    x[77]     c78       1
    x[77]     c81       1
    x[77]     c87       1
    x[77]     c99       1
    x[77]     OBJ       1
    x[78]     c3        1
    x[78]     c9        1
    x[78]     c18       1
    x[78]     c19       1
    x[78]     c33       1
    x[78]     c41       1
    x[78]     c47       1
    x[78]     c50       1
    x[78]     c53       1
    x[78]     c61       1
    x[78]     c68       1
    x[78]     c75       1
    x[78]     c77       1
    x[78]     c78       1
    x[78]     c94       1
    x[78]     c96       1
    x[78]     OBJ       1
    x[79]     c1        1
    x[79]     c5        1
    x[79]     c30       1
    x[79]     c36       1
    x[79]     c46       1
    x[79]     c48       1
    x[79]     c50       1
    x[79]     c53       1
    x[79]     c57       1
    x[79]     c58       1
    x[79]     c59       1
    x[79]     c67       1
    x[79]     c74       1
    x[79]     c79       1
    x[79]     OBJ       1
    x[80]     c2        1
    x[80]     c3        1
    x[80]     c21       1
    x[80]     c43       1
    x[80]     c44       1
    x[80]     c48       1
    x[80]     c49       1
    x[80]     c74       1
    x[80]     c80       1
    x[80]     c84       1
    x[80]     c85       1
    x[80]     c98       1
    x[80]     OBJ       1
    x[81]     c2        1
    x[81]     c19       1
    x[81]     c33       1
    x[81]     c34       1
    x[81]     c63       1
    x[81]     c68       1
    x[81]     c70       1
    x[81]     c77       1
    x[81]     c81       1
    x[81]     c82       1
    x[81]     c84       1
    x[81]     OBJ       1
    x[82]     c7        1
    x[82]     c8        1
    x[82]     c18       1
    x[82]     c21       1
    x[82]     c49       1
    x[82]     c51       1
    x[82]     c58       1
    x[82]     c62       1
    x[82]     c81       1
    x[82]     c82       1
    x[82]     c97       1
    x[82]     c99       1
    x[82]     OBJ       1
    x[83]     c18       1
    x[83]     c29       1
    x[83]     c30       1
    x[83]     c40       1
    x[83]     c57       1
    x[83]     c59       1
    x[83]     c65       1
    x[83]     c69       1
    x[83]     c83       1
    x[83]     c86       1
    x[83]     c87       1
    x[83]     c91       1
    x[83]     OBJ       1
    x[84]     c30       1
    x[84]     c35       1
    x[84]     c43       1
    x[84]     c46       1
    x[84]     c51       1
    x[84]     c69       1
    x[84]     c80       1
    x[84]     c81       1
    x[84]     c84       1
    x[84]     c85       1
    x[84]     OBJ       1
    x[85]     c15       1
    x[85]     c22       1
    x[85]     c43       1
    x[85]     c51       1
    x[85]     c70       1
    x[85]     c75       1
    x[85]     c80       1
    x[85]     c84       1
    x[85]     c85       1
    x[85]     OBJ       1
    x[86]     c8        1
    x[86]     c28       1
    x[86]     c39       1
    x[86]     c51       1
    x[86]     c56       1
    x[86]     c83       1
    x[86]     c86       1
    x[86]     OBJ       1
    x[87]     c11       1
    x[87]     c16       1
    x[87]     c20       1
    x[87]     c22       1
    x[87]     c44       1
    x[87]     c53       1
    x[87]     c61       1
    x[87]     c69       1
    x[87]     c72       1
    x[87]     c77       1
    x[87]     c83       1
    x[87]     c87       1
    x[87]     c88       1
    x[87]     OBJ       1
    x[88]     c18       1
    x[88]     c19       1
    x[88]     c23       1
    x[88]     c48       1
    x[88]     c68       1
    x[88]     c70       1
    x[88]     c87       1
    x[88]     c88       1
    x[88]     c94       1
    x[88]     OBJ       1
    x[89]     c4        1
    x[89]     c39       1
    x[89]     c44       1
    x[89]     c47       1
    x[89]     c70       1
    x[89]     c74       1
    x[89]     c75       1
    x[89]     c89       1
    x[89]     c91       1
    x[89]     OBJ       1
    x[90]     c6        1
    x[90]     c20       1
    x[90]     c22       1
    x[90]     c28       1
    x[90]     c30       1
    x[90]     c50       1
    x[90]     c52       1
    x[90]     c90       1
    x[90]     c93       1
    x[90]     c99       1
    x[90]     OBJ       1
    x[91]     c11       1
    x[91]     c31       1
    x[91]     c39       1
    x[91]     c41       1
    x[91]     c60       1
    x[91]     c83       1
    x[91]     c89       1
    x[91]     c91       1
    x[91]     OBJ       1
    x[92]     c6        1
    x[92]     c19       1
    x[92]     c28       1
    x[92]     c49       1
    x[92]     c52       1
    x[92]     c55       1
    x[92]     c67       1
    x[92]     c92       1
    x[92]     OBJ       1
    x[93]     c4        1
    x[93]     c13       1
    x[93]     c25       1
    x[93]     c31       1
    x[93]     c41       1
    x[93]     c46       1
    x[93]     c50       1
    x[93]     c53       1
    x[93]     c60       1
    x[93]     c61       1
    x[93]     c73       1
    x[93]     c90       1
    x[93]     c93       1
    x[93]     OBJ       1
    x[94]     c14       1
    x[94]     c18       1
    x[94]     c25       1
    x[94]     c47       1
    x[94]     c52       1
    x[94]     c56       1
    x[94]     c58       1
    x[94]     c60       1
    x[94]     c61       1
    x[94]     c63       1
    x[94]     c73       1
    x[94]     c78       1
    x[94]     c88       1
    x[94]     c94       1
    x[94]     c95       1
    x[94]     OBJ       1
    x[95]     c8        1
    x[95]     c11       1
    x[95]     c14       1
    x[95]     c26       1
    x[95]     c34       1
    x[95]     c39       1
    x[95]     c55       1
    x[95]     c65       1
    x[95]     c71       1
    x[95]     c94       1
    x[95]     c95       1
    x[95]     c97       1
    x[95]     OBJ       1
    x[96]     c3        1
    x[96]     c22       1
    x[96]     c27       1
    x[96]     c31       1
    x[96]     c38       1
    x[96]     c52       1
    x[96]     c59       1
    x[96]     c63       1
    x[96]     c68       1
    x[96]     c78       1
    x[96]     c96       1
    x[96]     OBJ       1
    x[97]     c3        1
    x[97]     c24       1
    x[97]     c65       1
    x[97]     c82       1
    x[97]     c95       1
    x[97]     c97       1
    x[97]     c99       1
    x[97]     OBJ       1
    x[98]     c2        1
    x[98]     c15       1
    x[98]     c37       1
    x[98]     c39       1
    x[98]     c43       1
    x[98]     c55       1
    x[98]     c68       1
    x[98]     c76       1
    x[98]     c80       1
    x[98]     c98       1
    x[98]     c99       1
    x[98]     c100      1
    x[98]     OBJ       1
    x[99]     c9        1
    x[99]     c52       1
    x[99]     c72       1
    x[99]     c77       1
    x[99]     c82       1
    x[99]     c90       1
    x[99]     c97       1
    x[99]     c98       1
    x[99]     c99       1
    x[99]     OBJ       1
    x[100]    c4        1
    x[100]    c28       1
    x[100]    c45       1
    x[100]    c98       1
    x[100]    c100      1
    x[100]    OBJ       1
    MARKER    'MARKER'                 'INTEND'
RHS
    rhs       c1        1
    rhs       c2        1
    rhs       c3        1
    rhs       c4        1
    rhs       c5        1
    rhs       c6        1
    rhs       c7        1
    rhs       c8        1
    rhs       c9        1
    rhs       c10       1
    rhs       c11       1
    rhs       c12       1
    rhs       c13       1
    rhs       c14       1
    rhs       c15       1
    rhs       c16       1
    rhs       c17       1
    rhs       c18       1
    rhs       c19       1
    rhs       c20       1
    rhs       c21       1
    rhs       c22       1
    rhs       c23       1
    rhs       c24       1
    rhs       c25       1
    rhs       c26       1
    rhs       c27       1
    rhs       c28       1
    rhs       c29       1
    rhs       c30       1
    rhs       c31       1
    rhs       c32       1
    rhs       c33       1
    rhs       c34       1
    rhs       c35       1
    rhs       c36       1
    rhs       c37       1
    rhs       c38       1
    rhs       c39       1
    rhs       c40       1
    rhs       c41       1
    rhs       c42       1
    rhs       c43       1
    rhs       c44       1
    rhs       c45       1
    rhs       c46       1
    rhs       c47       1
    rhs       c48       1
    rhs       c49       1
    rhs       c50       1
    rhs       c51       1
    rhs       c52       1
    rhs       c53       1
    rhs       c54       1
    rhs       c55       1
    rhs       c56       1
    rhs       c57       1
    rhs       c58       1
    rhs       c59       1
    rhs       c60       1
    rhs       c61       1
    rhs       c62       1
    rhs       c63       1
    rhs       c64       1
    rhs       c65       1
    rhs       c66       1
    rhs       c67       1
    rhs       c68       1
    rhs       c69       1
    rhs       c70       1
    rhs       c71       1
    rhs       c72       1
    rhs       c73       1
    rhs       c74       1
    rhs       c75       1
    rhs       c76       1
    rhs       c77       1
    rhs       c78       1
    rhs       c79       1
    rhs       c80       1
    rhs       c81       1
    rhs       c82       1
    rhs       c83       1
    rhs       c84       1
    rhs       c85       1
    rhs       c86       1
    rhs       c87       1
    rhs       c88       1
    rhs       c89       1
    rhs       c90       1
    rhs       c91       1
    rhs       c92       1
    rhs       c93       1
    rhs       c94       1
    rhs       c95       1
    rhs       c96       1
    rhs       c97       1
    rhs       c98       1
    rhs       c99       1
    rhs       c100      1
RANGES
BOUNDS
 BV bounds    x[1]
 BV bounds    x[2]
 BV bounds    x[3]
 BV bounds    x[4]
 BV bounds    x[5]
 BV bounds    x[6]
 BV bounds    x[7]
 BV bounds    x[8]
 BV bounds    x[9]
 BV bounds    x[10]
 BV bounds    x[11]
 BV bounds    x[12]
 BV bounds    x[13]
 BV bounds    x[14]
 BV bounds    x[15]
 BV bounds    x[16]
 BV bounds    x[17]
 BV bounds    x[18]
 BV bounds    x[19]
 BV bounds    x[20]
 BV bounds    x[21]
 BV bounds    x[22]
 BV bounds    x[23]
 BV bounds    x[24]
 BV bounds    x[25]
 BV bounds    x[26]
 BV bounds    x[27]
 BV bounds    x[28]
 BV bounds    x[29]
 BV bounds    x[30]
 BV bounds    x[31]
 BV bounds    x[32]
 BV bounds    x[33]
 BV bounds    x[34]
 BV bounds    x[35]
 BV bounds    x[36]
 BV bounds    x[37]
 BV bounds    x[38]
 BV bounds    x[39]
 BV bounds    x[40]
 BV bounds    x[41]
 BV bounds    x[42]
 BV bounds    x[43]
 BV bounds    x[44]
 BV bounds    x[45]
 BV bounds    x[46]
 BV bounds    x[47]
 BV bounds    x[48]
 BV bounds    x[49]
 BV bounds    x[50]
 BV bounds    x[51]
 BV bounds    x[52]
 BV bounds    x[53]
 BV bounds    x[54]
 BV bounds    x[55]
 BV bounds    x[56]
 BV bounds    x[57]
 BV bounds    x[58]
 BV bounds    x[59]
 BV bounds    x[60]
 BV bounds    x[61]
 BV bounds    x[62]
 BV bounds    x[63]
 BV bounds    x[64]
 BV bounds    x[65]
 BV bounds    x[66]
 BV bounds    x[67]
 BV bounds    x[68]
 BV bounds    x[69]
 BV bounds    x[70]
 BV bounds    x[71]
 BV bounds    x[72]
 BV bounds    x[73]
 BV bounds    x[74]
 BV bounds    x[75]
 BV bounds    x[76]
 BV bounds    x[77]
 BV bounds    x[78]
 BV bounds    x[79]
 BV bounds    x[80]
 BV bounds    x[81]
 BV bounds    x[82]
 BV bounds    x[83]
 BV bounds    x[84]
 BV bounds    x[85]
 BV bounds    x[86]
 BV bounds    x[87]
 BV bounds    x[88]
 BV bounds    x[89]
 BV bounds    x[90]
 BV bounds    x[91]
 BV bounds    x[92]
 BV bounds    x[93]
 BV bounds    x[94]
 BV bounds    x[95]
 BV bounds    x[96]
 BV bounds    x[97]
 BV bounds    x[98]
 BV bounds    x[99]
 BV bounds    x[100]
ENDATA
